p cnf 965 2478
51 -2 -698 0
-51 2 0
-51 698 0
52 -51 -3 0
-52 51 0
-52 3 0
53 -5 -699 0
-53 5 0
-53 699 0
54 -53 -700 0
-54 53 0
-54 700 0
55 -701 -702 0
-55 701 0
-55 702 0
56 -703 -704 0
-56 703 0
-56 704 0
57 -56 -705 0
-57 56 0
-57 705 0
58 -706 -55 0
-58 706 0
-58 55 0
59 -8 -698 0
-59 8 0
-59 698 0
60 -59 -9 0
-60 59 0
-60 9 0
61 -707 -58 0
-61 707 0
-61 58 0
62 -11 -10 0
-62 11 0
-62 10 0
63 -62 -12 0
-63 62 0
-63 12 0
64 -708 -61 0
-64 708 0
-64 61 0
65 -709 -710 0
-65 709 0
-65 710 0
66 -65 -711 0
-66 65 0
-66 711 0
67 -712 -64 0
-67 712 0
-67 64 0
68 -713 -16 0
-68 713 0
-68 16 0
69 -68 -714 0
-69 68 0
-69 714 0
70 -715 -67 0
-70 715 0
-70 67 0
71 -19 -698 0
-71 19 0
-71 698 0
72 -71 -5 0
-72 71 0
-72 5 0
73 -716 -70 0
-73 716 0
-73 70 0
74 -717 -20 0
-74 717 0
-74 20 0
75 -74 -9 0
-75 74 0
-75 9 0
76 -718 -73 0
-76 718 0
-76 73 0
77 -719 -19 0
-77 719 0
-77 19 0
78 -77 -23 0
-78 77 0
-78 23 0
79 -720 -76 0
-79 720 0
-79 76 0
80 -25 -24 0
-80 25 0
-80 24 0
81 -80 -721 0
-81 80 0
-81 721 0
82 -722 -79 0
-82 722 0
-82 79 0
83 -27 -22 0
-83 27 0
-83 22 0
84 -83 -721 0
-84 83 0
-84 721 0
85 -723 -82 0
-85 723 0
-85 82 0
86 -724 -725 0
-86 724 0
-86 725 0
87 -86 -14 0
-87 86 0
-87 14 0
88 -726 -85 0
-88 726 0
-88 85 0
89 -30 -20 0
-89 30 0
-89 20 0
90 -89 -727 0
-90 89 0
-90 727 0
91 -728 -88 0
-91 728 0
-91 88 0
92 -729 -703 0
-92 729 0
-92 703 0
93 -92 -8 0
-93 92 0
-93 8 0
94 -730 -91 0
-94 730 0
-94 91 0
95 -33 -4 0
-95 33 0
-95 4 0
96 -95 -31 0
-96 95 0
-96 31 0
97 -731 -94 0
-97 731 0
-97 94 0
98 -732 -699 0
-98 732 0
-98 699 0
99 -98 -721 0
-99 98 0
-99 721 0
100 -733 -97 0
-100 733 0
-100 97 0
101 -727 -699 0
-101 727 0
-101 699 0
102 -101 -711 0
-102 101 0
-102 711 0
103 -734 -100 0
-103 734 0
-103 100 0
104 -735 -6 0
-104 735 0
-104 6 0
105 -104 -15 0
-105 104 0
-105 15 0
106 -736 -103 0
-106 736 0
-106 103 0
107 -22 -737 0
-107 22 0
-107 737 0
108 -107 -35 0
-108 107 0
-108 35 0
109 -738 -106 0
-109 738 0
-109 106 0
110 -732 -739 0
-110 732 0
-110 739 0
111 -110 -36 0
-111 110 0
-111 36 0
112 -740 -109 0
-112 740 0
-112 109 0
113 -27 -721 0
-113 27 0
-113 721 0
114 -113 -714 0
-114 113 0
-114 714 0
115 -741 -112 0
-115 741 0
-115 112 0
116 -29 -703 0
-116 29 0
-116 703 0
117 -116 -37 0
-117 116 0
-117 37 0
118 -742 -115 0
-118 742 0
-118 115 0
119 -21 -16 0
-119 21 0
-119 16 0
120 -119 -743 0
-120 119 0
-120 743 0
121 -744 -118 0
-121 744 0
-121 118 0
122 -8 -6 0
-122 8 0
-122 6 0
123 -122 -745 0
-123 122 0
-123 745 0
124 -746 -121 0
-124 746 0
-124 121 0
125 -20 -699 0
-125 20 0
-125 699 0
126 -125 -747 0
-126 125 0
-126 747 0
127 -748 -124 0
-127 748 0
-127 124 0
128 -749 -28 0
-128 749 0
-128 28 0
129 -128 -750 0
-129 128 0
-129 750 0
130 -751 -127 0
-130 751 0
-130 127 0
131 -13 -752 0
-131 13 0
-131 752 0
132 -131 -721 0
-132 131 0
-132 721 0
133 -753 -130 0
-133 753 0
-133 130 0
134 -40 -710 0
-134 40 0
-134 710 0
135 -134 -9 0
-135 134 0
-135 9 0
136 -754 -133 0
-136 754 0
-136 133 0
137 -41 -750 0
-137 41 0
-137 750 0
138 -137 -35 0
-138 137 0
-138 35 0
139 -755 -136 0
-139 755 0
-139 136 0
140 -19 -704 0
-140 19 0
-140 704 0
141 -140 -24 0
-141 140 0
-141 24 0
142 -756 -139 0
-142 756 0
-142 139 0
143 -757 -21 0
-143 757 0
-143 21 0
144 -143 -714 0
-144 143 0
-144 714 0
145 -758 -142 0
-145 758 0
-145 142 0
146 -42 -725 0
-146 42 0
-146 725 0
147 -146 -43 0
-147 146 0
-147 43 0
148 -759 -145 0
-148 759 0
-148 145 0
149 -22 -19 0
-149 22 0
-149 19 0
150 -149 -760 0
-150 149 0
-150 760 0
151 -761 -148 0
-151 761 0
-151 148 0
152 -762 -732 0
-152 762 0
-152 732 0
153 -152 -763 0
-153 152 0
-153 763 0
154 -764 -151 0
-154 764 0
-154 151 0
155 -34 -747 0
-155 34 0
-155 747 0
156 -155 -44 0
-156 155 0
-156 44 0
157 -765 -154 0
-157 765 0
-157 154 0
158 -724 -10 0
-158 724 0
-158 10 0
159 -158 -766 0
-159 158 0
-159 766 0
160 -767 -157 0
-160 767 0
-160 157 0
161 -747 -711 0
-161 747 0
-161 711 0
162 -161 -745 0
-162 161 0
-162 745 0
163 -768 -160 0
-163 768 0
-163 160 0
164 -713 -5 0
-164 713 0
-164 5 0
165 -164 -43 0
-165 164 0
-165 43 0
166 -769 -163 0
-166 769 0
-166 163 0
167 -45 -705 0
-167 45 0
-167 705 0
168 -167 -770 0
-168 167 0
-168 770 0
169 -771 -166 0
-169 771 0
-169 166 0
170 -40 -760 0
-170 40 0
-170 760 0
171 -170 -46 0
-171 170 0
-171 46 0
172 -772 -169 0
-172 772 0
-172 169 0
173 -729 -17 0
-173 729 0
-173 17 0
174 -173 -727 0
-174 173 0
-174 727 0
175 -773 -172 0
-175 773 0
-175 172 0
176 -714 -710 0
-176 714 0
-176 710 0
177 -176 -774 0
-177 176 0
-177 774 0
178 -775 -175 0
-178 775 0
-178 175 0
179 -47 -732 0
-179 47 0
-179 732 0
180 -179 -43 0
-180 179 0
-180 43 0
181 -776 -178 0
-181 776 0
-181 178 0
182 -24 -710 0
-182 24 0
-182 710 0
183 -182 -37 0
-183 182 0
-183 37 0
184 -777 -181 0
-184 777 0
-184 181 0
185 -42 -2 0
-185 42 0
-185 2 0
186 -185 -732 0
-186 185 0
-186 732 0
187 -778 -184 0
-187 778 0
-187 184 0
188 -47 -698 0
-188 47 0
-188 698 0
189 -188 -44 0
-189 188 0
-189 44 0
190 -779 -187 0
-190 779 0
-190 187 0
191 -757 -29 0
-191 757 0
-191 29 0
192 -191 -36 0
-192 191 0
-192 36 0
193 -780 -190 0
-193 780 0
-193 190 0
194 -45 -732 0
-194 45 0
-194 732 0
195 -194 -3 0
-195 194 0
-195 3 0
196 -781 -193 0
-196 781 0
-196 193 0
197 -19 -1 0
-197 19 0
-197 1 0
198 -197 -782 0
-198 197 0
-198 782 0
199 -783 -196 0
-199 783 0
-199 196 0
200 -18 -14 0
-200 18 0
-200 14 0
201 -200 -3 0
-201 200 0
-201 3 0
202 -784 -199 0
-202 784 0
-202 199 0
203 -38 -6 0
-203 38 0
-203 6 0
204 -203 -36 0
-204 203 0
-204 36 0
205 -785 -202 0
-205 785 0
-205 202 0
206 -786 -787 0
-206 786 0
-206 787 0
207 -206 -766 0
-207 206 0
-207 766 0
208 -788 -205 0
-208 788 0
-208 205 0
209 -31 -30 0
-209 31 0
-209 30 0
210 -209 -700 0
-210 209 0
-210 700 0
211 -789 -208 0
-211 789 0
-211 208 0
212 -763 -7 0
-212 763 0
-212 7 0
213 -212 -705 0
-213 212 0
-213 705 0
214 -790 -211 0
-214 790 0
-214 211 0
215 -47 -28 0
-215 47 0
-215 28 0
216 -215 -37 0
-216 215 0
-216 37 0
217 -791 -214 0
-217 791 0
-217 214 0
218 -46 -11 0
-218 46 0
-218 11 0
219 -218 -38 0
-219 218 0
-219 38 0
220 -792 -217 0
-220 792 0
-220 217 0
221 -48 -23 0
-221 48 0
-221 23 0
222 -221 -705 0
-222 221 0
-222 705 0
223 -793 -220 0
-223 793 0
-223 220 0
224 -46 -729 0
-224 46 0
-224 729 0
225 -224 -37 0
-225 224 0
-225 37 0
226 -794 -223 0
-226 794 0
-226 223 0
227 -24 -10 0
-227 24 0
-227 10 0
228 -227 -5 0
-228 227 0
-228 5 0
229 -795 -226 0
-229 795 0
-229 226 0
230 -38 -737 0
-230 38 0
-230 737 0
231 -230 -43 0
-231 230 0
-231 43 0
232 -796 -229 0
-232 796 0
-232 229 0
233 -41 -760 0
-233 41 0
-233 760 0
234 -233 -711 0
-234 233 0
-234 711 0
235 -797 -232 0
-235 797 0
-235 232 0
236 -40 -7 0
-236 40 0
-236 7 0
237 -236 -45 0
-237 236 0
-237 45 0
238 -798 -235 0
-238 798 0
-238 235 0
239 -717 -760 0
-239 717 0
-239 760 0
240 -239 -799 0
-240 239 0
-240 799 0
241 -800 -238 0
-241 800 0
-241 238 0
242 -721 -4 0
-242 721 0
-242 4 0
243 -242 -18 0
-243 242 0
-243 18 0
244 -801 -241 0
-244 801 0
-244 241 0
245 -23 -717 0
-245 23 0
-245 717 0
246 -245 -18 0
-246 245 0
-246 18 0
247 -802 -244 0
-247 802 0
-247 244 0
248 -50 -23 0
-248 50 0
-248 23 0
249 -248 -774 0
-249 248 0
-249 774 0
250 -803 -247 0
-250 803 0
-250 247 0
251 -13 -750 0
-251 13 0
-251 750 0
252 -251 -732 0
-252 251 0
-252 732 0
253 -804 -250 0
-253 804 0
-253 250 0
254 -729 -786 0
-254 729 0
-254 786 0
255 -254 -45 0
-255 254 0
-255 45 0
256 -805 -253 0
-256 805 0
-256 253 0
257 -188 -6 0
-257 188 0
-257 6 0
258 -806 -256 0
-258 806 0
-258 256 0
259 -33 -717 0
-259 33 0
-259 717 0
260 -259 -38 0
-260 259 0
-260 38 0
261 -807 -258 0
-261 807 0
-261 258 0
262 -50 -729 0
-262 50 0
-262 729 0
263 -262 -30 0
-263 262 0
-263 30 0
264 -808 -261 0
-264 808 0
-264 261 0
265 -762 -747 0
-265 762 0
-265 747 0
266 -265 -709 0
-266 265 0
-266 709 0
267 -809 -264 0
-267 809 0
-267 264 0
268 -48 -810 0
-268 48 0
-268 810 0
269 -268 -721 0
-269 268 0
-269 721 0
270 -811 -267 0
-270 811 0
-270 267 0
271 -8 -699 0
-271 8 0
-271 699 0
272 -271 -43 0
-272 271 0
-272 43 0
273 -812 -270 0
-273 812 0
-273 270 0
274 -813 -12 0
-274 813 0
-274 12 0
275 -274 -727 0
-275 274 0
-275 727 0
276 -814 -273 0
-276 814 0
-276 273 0
277 -815 -25 0
-277 815 0
-277 25 0
278 -277 -18 0
-278 277 0
-278 18 0
279 -816 -276 0
-279 816 0
-279 276 0
280 -817 -737 0
-280 817 0
-280 737 0
281 -280 -35 0
-281 280 0
-281 35 0
282 -818 -279 0
-282 818 0
-282 279 0
283 -50 -763 0
-283 50 0
-283 763 0
284 -283 -49 0
-284 283 0
-284 49 0
285 -819 -282 0
-285 819 0
-285 282 0
286 -820 -24 0
-286 820 0
-286 24 0
287 -286 -6 0
-287 286 0
-287 6 0
288 -821 -285 0
-288 821 0
-288 285 0
289 -757 -762 0
-289 757 0
-289 762 0
290 -289 -4 0
-290 289 0
-290 4 0
291 -822 -288 0
-291 822 0
-291 288 0
292 -42 -30 0
-292 42 0
-292 30 0
293 -292 -25 0
-293 292 0
-293 25 0
294 -823 -291 0
-294 823 0
-294 291 0
295 -47 -43 0
-295 47 0
-295 43 0
296 -295 -824 0
-296 295 0
-296 824 0
297 -825 -294 0
-297 825 0
-297 294 0
298 -724 -704 0
-298 724 0
-298 704 0
299 -298 -31 0
-299 298 0
-299 31 0
300 -826 -297 0
-300 826 0
-300 297 0
301 -48 -711 0
-301 48 0
-301 711 0
302 -301 -714 0
-302 301 0
-302 714 0
303 -827 -300 0
-303 827 0
-303 300 0
304 -23 -760 0
-304 23 0
-304 760 0
305 -304 -46 0
-305 304 0
-305 46 0
306 -828 -303 0
-306 828 0
-306 303 0
307 -725 -1 0
-307 725 0
-307 1 0
308 -307 -724 0
-308 307 0
-308 724 0
309 -829 -306 0
-309 829 0
-309 306 0
310 -41 -704 0
-310 41 0
-310 704 0
311 -310 -810 0
-311 310 0
-311 810 0
312 -830 -309 0
-312 830 0
-312 309 0
313 -33 -3 0
-313 33 0
-313 3 0
314 -313 -770 0
-314 313 0
-314 770 0
315 -831 -312 0
-315 831 0
-315 312 0
316 -47 -33 0
-316 47 0
-316 33 0
317 -316 -832 0
-317 316 0
-317 832 0
318 -833 -315 0
-318 833 0
-318 315 0
319 -786 -721 0
-319 786 0
-319 721 0
320 -319 -18 0
-320 319 0
-320 18 0
321 -834 -318 0
-321 834 0
-321 318 0
322 -31 -750 0
-322 31 0
-322 750 0
323 -322 -37 0
-323 322 0
-323 37 0
324 -835 -321 0
-324 835 0
-324 321 0
325 -18 -698 0
-325 18 0
-325 698 0
326 -325 -824 0
-326 325 0
-326 824 0
327 -836 -324 0
-327 836 0
-327 324 0
328 -24 -7 0
-328 24 0
-328 7 0
329 -328 -727 0
-329 328 0
-329 727 0
330 -837 -327 0
-330 837 0
-330 327 0
331 -832 -45 0
-331 832 0
-331 45 0
332 -331 -35 0
-332 331 0
-332 35 0
333 -838 -330 0
-333 838 0
-333 330 0
334 -45 -24 0
-334 45 0
-334 24 0
335 -334 -732 0
-335 334 0
-335 732 0
336 -839 -333 0
-336 839 0
-336 333 0
337 -24 -15 0
-337 24 0
-337 15 0
338 -337 -38 0
-338 337 0
-338 38 0
339 -840 -336 0
-339 840 0
-339 336 0
340 -709 -5 0
-340 709 0
-340 5 0
341 -340 -12 0
-341 340 0
-341 12 0
342 -841 -339 0
-342 841 0
-342 339 0
343 -12 -750 0
-343 12 0
-343 750 0
344 -343 -732 0
-344 343 0
-344 732 0
345 -842 -342 0
-345 842 0
-345 342 0
346 -820 -747 0
-346 820 0
-346 747 0
347 -346 -44 0
-347 346 0
-347 44 0
348 -843 -345 0
-348 843 0
-348 345 0
349 -725 -699 0
-349 725 0
-349 699 0
350 -349 -732 0
-350 349 0
-350 732 0
351 -844 -348 0
-351 844 0
-351 348 0
352 -47 -747 0
-352 47 0
-352 747 0
353 -352 -15 0
-353 352 0
-353 15 0
354 -845 -351 0
-354 845 0
-354 351 0
355 -47 -40 0
-355 47 0
-355 40 0
356 -355 -752 0
-356 355 0
-356 752 0
357 -846 -354 0
-357 846 0
-357 354 0
358 -813 -737 0
-358 813 0
-358 737 0
359 -358 -760 0
-359 358 0
-359 760 0
360 -847 -357 0
-360 847 0
-360 357 0
361 -286 -25 0
-361 286 0
-361 25 0
362 -848 -360 0
-362 848 0
-362 360 0
363 -50 -704 0
-363 50 0
-363 704 0
364 -363 -21 0
-364 363 0
-364 21 0
365 -849 -362 0
-365 849 0
-365 362 0
366 -45 -16 0
-366 45 0
-366 16 0
367 -366 -18 0
-367 366 0
-367 18 0
368 -850 -365 0
-368 850 0
-368 365 0
369 -721 -24 0
-369 721 0
-369 24 0
370 -369 -46 0
-370 369 0
-370 46 0
371 -851 -368 0
-371 851 0
-371 368 0
372 -813 -787 0
-372 813 0
-372 787 0
373 -372 -824 0
-373 372 0
-373 824 0
374 -852 -371 0
-374 852 0
-374 371 0
375 -749 -766 0
-375 749 0
-375 766 0
376 -375 -832 0
-376 375 0
-376 832 0
377 -853 -374 0
-377 853 0
-377 374 0
378 -747 -18 0
-378 747 0
-378 18 0
379 -378 -38 0
-379 378 0
-379 38 0
380 -854 -377 0
-380 854 0
-380 377 0
381 -38 -786 0
-381 38 0
-381 786 0
382 -381 -3 0
-382 381 0
-382 3 0
383 -855 -380 0
-383 855 0
-383 380 0
384 -41 -22 0
-384 41 0
-384 22 0
385 -384 -45 0
-385 384 0
-385 45 0
386 -856 -383 0
-386 856 0
-386 383 0
387 -757 -724 0
-387 757 0
-387 724 0
388 -387 -711 0
-388 387 0
-388 711 0
389 -857 -386 0
-389 857 0
-389 386 0
390 -38 -19 0
-390 38 0
-390 19 0
391 -390 -824 0
-391 390 0
-391 824 0
392 -858 -389 0
-392 858 0
-392 389 0
393 -859 -25 0
-393 859 0
-393 25 0
394 -393 -37 0
-394 393 0
-394 37 0
395 -860 -392 0
-395 860 0
-395 392 0
396 -813 -743 0
-396 813 0
-396 743 0
397 -396 -12 0
-397 396 0
-397 12 0
398 -861 -395 0
-398 861 0
-398 395 0
399 -50 -766 0
-399 50 0
-399 766 0
400 -399 -747 0
-400 399 0
-400 747 0
401 -862 -398 0
-401 862 0
-401 398 0
402 -743 -752 0
-402 743 0
-402 752 0
403 -402 -711 0
-403 402 0
-403 711 0
404 -863 -401 0
-404 863 0
-404 401 0
405 -810 -719 0
-405 810 0
-405 719 0
406 -405 -38 0
-406 405 0
-406 38 0
407 -864 -404 0
-407 864 0
-407 404 0
408 -815 -760 0
-408 815 0
-408 760 0
409 -408 -17 0
-409 408 0
-409 17 0
410 -865 -407 0
-410 865 0
-410 407 0
411 -45 -33 0
-411 45 0
-411 33 0
412 -411 -711 0
-412 411 0
-412 711 0
413 -866 -410 0
-413 866 0
-413 410 0
414 -42 -4 0
-414 42 0
-414 4 0
415 -414 -709 0
-415 414 0
-415 709 0
416 -867 -413 0
-416 867 0
-416 413 0
417 -813 -820 0
-417 813 0
-417 820 0
418 -417 -21 0
-418 417 0
-418 21 0
419 -868 -416 0
-419 868 0
-419 416 0
420 -16 -1 0
-420 16 0
-420 1 0
421 -420 -786 0
-421 420 0
-421 786 0
422 -869 -419 0
-422 869 0
-422 419 0
423 -50 -721 0
-423 50 0
-423 721 0
424 -423 -6 0
-424 423 0
-424 6 0
425 -870 -422 0
-425 870 0
-425 422 0
426 -786 -13 0
-426 786 0
-426 13 0
427 -426 -711 0
-427 426 0
-427 711 0
428 -871 -425 0
-428 871 0
-428 425 0
429 -735 -704 0
-429 735 0
-429 704 0
430 -429 -24 0
-430 429 0
-430 24 0
431 -872 -428 0
-431 872 0
-431 428 0
432 -40 -729 0
-432 40 0
-432 729 0
433 -432 -770 0
-433 432 0
-433 770 0
434 -873 -431 0
-434 873 0
-434 431 0
435 -41 -787 0
-435 41 0
-435 787 0
436 -435 -27 0
-436 435 0
-436 27 0
437 -874 -434 0
-437 874 0
-437 434 0
438 -732 -750 0
-438 732 0
-438 750 0
439 -438 -782 0
-439 438 0
-439 782 0
440 -875 -437 0
-440 875 0
-440 437 0
441 -813 -763 0
-441 813 0
-441 763 0
442 -441 -9 0
-442 441 0
-442 9 0
443 -876 -440 0
-443 876 0
-443 440 0
444 -34 -32 0
-444 34 0
-444 32 0
445 -444 -24 0
-445 444 0
-445 24 0
446 -877 -443 0
-446 877 0
-446 443 0
447 -727 -703 0
-447 727 0
-447 703 0
448 -447 -49 0
-448 447 0
-448 49 0
449 -878 -446 0
-449 878 0
-449 446 0
450 -813 -34 0
-450 813 0
-450 34 0
451 -450 -39 0
-451 450 0
-451 39 0
452 -879 -449 0
-452 879 0
-452 449 0
453 -31 -25 0
-453 31 0
-453 25 0
454 -453 -700 0
-454 453 0
-454 700 0
455 -880 -452 0
-455 880 0
-455 452 0
456 -18 -5 0
-456 18 0
-456 5 0
457 -456 -881 0
-457 456 0
-457 881 0
458 -882 -455 0
-458 882 0
-458 455 0
459 -25 -14 0
-459 25 0
-459 14 0
460 -459 -714 0
-460 459 0
-460 714 0
461 -883 -458 0
-461 883 0
-461 458 0
462 -817 -23 0
-462 817 0
-462 23 0
463 -462 -49 0
-463 462 0
-463 49 0
464 -884 -461 0
-464 884 0
-464 461 0
465 -7 -2 0
-465 7 0
-465 2 0
466 -465 -18 0
-466 465 0
-466 18 0
467 -885 -464 0
-467 885 0
-467 464 0
468 -721 -743 0
-468 721 0
-468 743 0
469 -468 -37 0
-469 468 0
-469 37 0
470 -886 -467 0
-470 886 0
-470 467 0
471 -48 -45 0
-471 48 0
-471 45 0
472 -471 -35 0
-472 471 0
-472 35 0
473 -887 -470 0
-473 887 0
-473 470 0
474 -786 -10 0
-474 786 0
-474 10 0
475 -474 -717 0
-475 474 0
-475 717 0
476 -888 -473 0
-476 888 0
-476 473 0
477 -42 -737 0
-477 42 0
-477 737 0
478 -477 -12 0
-478 477 0
-478 12 0
479 -889 -476 0
-479 889 0
-479 476 0
480 -859 -787 0
-480 859 0
-480 787 0
481 -480 -15 0
-481 480 0
-481 15 0
482 -890 -479 0
-482 890 0
-482 479 0
483 -29 -2 0
-483 29 0
-483 2 0
484 -483 -43 0
-484 483 0
-484 43 0
485 -891 -482 0
-485 891 0
-485 482 0
486 -817 -719 0
-486 817 0
-486 719 0
487 -486 -43 0
-487 486 0
-487 43 0
488 -892 -485 0
-488 892 0
-488 485 0
489 -27 -714 0
-489 27 0
-489 714 0
490 -489 -770 0
-490 489 0
-490 770 0
491 -893 -488 0
-491 893 0
-491 488 0
492 -787 -703 0
-492 787 0
-492 703 0
493 -492 -724 0
-493 492 0
-493 724 0
494 -894 -491 0
-494 894 0
-494 491 0
495 -29 -24 0
-495 29 0
-495 24 0
496 -495 -3 0
-496 495 0
-496 3 0
497 -895 -494 0
-497 895 0
-497 494 0
498 -35 -700 0
-498 35 0
-498 700 0
499 -498 -3 0
-499 498 0
-499 3 0
500 -896 -497 0
-500 896 0
-500 497 0
501 -739 -704 0
-501 739 0
-501 704 0
502 -501 -31 0
-502 501 0
-502 31 0
503 -897 -500 0
-503 897 0
-503 500 0
504 -40 -698 0
-504 40 0
-504 698 0
505 -504 -709 0
-505 504 0
-505 709 0
506 -898 -503 0
-506 898 0
-506 503 0
507 -48 -15 0
-507 48 0
-507 15 0
508 -507 -705 0
-508 507 0
-508 705 0
509 -899 -506 0
-509 899 0
-509 506 0
510 -32 -699 0
-510 32 0
-510 699 0
511 -510 -737 0
-511 510 0
-511 737 0
512 -900 -509 0
-512 900 0
-512 509 0
513 -49 -700 0
-513 49 0
-513 700 0
514 -513 -36 0
-514 513 0
-514 36 0
515 -901 -512 0
-515 901 0
-515 512 0
516 -50 -15 0
-516 50 0
-516 15 0
517 -516 -799 0
-517 516 0
-517 799 0
518 -902 -515 0
-518 902 0
-518 515 0
519 -782 -14 0
-519 782 0
-519 14 0
520 -519 -3 0
-520 519 0
-520 3 0
521 -903 -518 0
-521 903 0
-521 518 0
522 -735 -31 0
-522 735 0
-522 31 0
523 -522 -782 0
-523 522 0
-523 782 0
524 -904 -521 0
-524 904 0
-524 521 0
525 -813 -757 0
-525 813 0
-525 757 0
526 -525 -21 0
-526 525 0
-526 21 0
527 -905 -524 0
-527 905 0
-527 524 0
528 -25 -711 0
-528 25 0
-528 711 0
529 -528 -18 0
-529 528 0
-529 18 0
530 -906 -527 0
-530 906 0
-530 527 0
531 -724 -810 0
-531 724 0
-531 810 0
532 -531 -6 0
-532 531 0
-532 6 0
533 -907 -530 0
-533 907 0
-533 530 0
534 -815 -7 0
-534 815 0
-534 7 0
535 -534 -33 0
-535 534 0
-535 33 0
536 -908 -533 0
-536 908 0
-536 533 0
537 -721 -704 0
-537 721 0
-537 704 0
538 -537 -36 0
-538 537 0
-538 36 0
539 -909 -536 0
-539 909 0
-539 536 0
540 -298 -709 0
-540 298 0
-540 709 0
541 -910 -539 0
-541 910 0
-541 539 0
542 -911 -10 0
-542 911 0
-542 10 0
543 -542 -881 0
-543 542 0
-543 881 0
544 -912 -541 0
-544 912 0
-544 541 0
545 -29 -732 0
-545 29 0
-545 732 0
546 -545 -3 0
-546 545 0
-546 3 0
547 -913 -544 0
-547 913 0
-547 544 0
548 -787 -4 0
-548 787 0
-548 4 0
549 -548 -44 0
-549 548 0
-549 44 0
550 -914 -547 0
-550 914 0
-550 547 0
551 -50 -747 0
-551 50 0
-551 747 0
552 -551 -12 0
-552 551 0
-552 12 0
553 -915 -550 0
-553 915 0
-553 550 0
554 -45 -29 0
-554 45 0
-554 29 0
555 -554 -24 0
-555 554 0
-555 24 0
556 -916 -553 0
-556 916 0
-556 553 0
557 -41 -719 0
-557 41 0
-557 719 0
558 -557 -39 0
-558 557 0
-558 39 0
559 -917 -556 0
-559 917 0
-559 556 0
560 -735 -737 0
-560 735 0
-560 737 0
561 -560 -17 0
-561 560 0
-561 17 0
562 -918 -559 0
-562 918 0
-562 559 0
563 -29 -719 0
-563 29 0
-563 719 0
564 -563 -714 0
-564 563 0
-564 714 0
565 -919 -562 0
-565 919 0
-565 562 0
566 -7 -700 0
-566 7 0
-566 700 0
567 -566 -43 0
-567 566 0
-567 43 0
568 -920 -565 0
-568 920 0
-568 565 0
569 -859 -40 0
-569 859 0
-569 40 0
570 -569 -760 0
-570 569 0
-570 760 0
571 -921 -568 0
-571 921 0
-571 568 0
572 -41 -729 0
-572 41 0
-572 729 0
573 -572 -832 0
-573 572 0
-573 832 0
574 -922 -571 0
-574 922 0
-574 571 0
575 -22 -698 0
-575 22 0
-575 698 0
576 -575 -27 0
-576 575 0
-576 27 0
577 -923 -574 0
-577 923 0
-577 574 0
578 -813 -2 0
-578 813 0
-578 2 0
579 -578 -43 0
-579 578 0
-579 43 0
580 -924 -577 0
-580 924 0
-580 577 0
581 -709 -703 0
-581 709 0
-581 703 0
582 -581 -705 0
-582 581 0
-582 705 0
583 -925 -580 0
-583 925 0
-583 580 0
584 -749 -763 0
-584 749 0
-584 763 0
585 -584 -782 0
-585 584 0
-585 782 0
586 -926 -583 0
-586 926 0
-586 583 0
587 -817 -747 0
-587 817 0
-587 747 0
588 -587 -763 0
-588 587 0
-588 763 0
589 -927 -586 0
-589 927 0
-589 586 0
590 -50 -719 0
-590 50 0
-590 719 0
591 -590 -19 0
-591 590 0
-591 19 0
592 -928 -589 0
-592 928 0
-592 589 0
593 -749 -698 0
-593 749 0
-593 698 0
594 -593 -5 0
-594 593 0
-594 5 0
595 -929 -592 0
-595 929 0
-595 592 0
596 -911 -719 0
-596 911 0
-596 719 0
597 -596 -19 0
-597 596 0
-597 19 0
598 -930 -595 0
-598 930 0
-598 595 0
599 -813 -725 0
-599 813 0
-599 725 0
600 -599 -29 0
-600 599 0
-600 29 0
601 -931 -598 0
-601 931 0
-601 598 0
602 -590 -4 0
-602 590 0
-602 4 0
603 -932 -601 0
-603 932 0
-603 601 0
604 -745 -709 0
-604 745 0
-604 709 0
605 -604 -49 0
-605 604 0
-605 49 0
606 -933 -603 0
-606 933 0
-606 603 0
607 -737 -698 0
-607 737 0
-607 698 0
608 -607 -763 0
-608 607 0
-608 763 0
609 -934 -606 0
-609 934 0
-609 606 0
610 -34 -719 0
-610 34 0
-610 719 0
611 -610 -820 0
-611 610 0
-611 820 0
612 -935 -609 0
-612 935 0
-612 609 0
613 -762 -20 0
-613 762 0
-613 20 0
614 -613 -38 0
-614 613 0
-614 38 0
615 -936 -612 0
-615 936 0
-615 612 0
616 -40 -6 0
-616 40 0
-616 6 0
617 -616 -711 0
-617 616 0
-617 711 0
618 -937 -615 0
-618 937 0
-618 615 0
619 -28 -719 0
-619 28 0
-619 719 0
620 -619 -37 0
-620 619 0
-620 37 0
621 -938 -618 0
-621 938 0
-621 618 0
622 -737 -787 0
-622 737 0
-622 787 0
623 -622 -774 0
-623 622 0
-623 774 0
624 -939 -621 0
-624 939 0
-624 621 0
625 -358 -782 0
-625 358 0
-625 782 0
626 -940 -624 0
-626 940 0
-626 624 0
627 -42 -704 0
-627 42 0
-627 704 0
628 -627 -709 0
-628 627 0
-628 709 0
629 -941 -626 0
-629 941 0
-629 626 0
630 -859 -704 0
-630 859 0
-630 704 0
631 -630 -739 0
-631 630 0
-631 739 0
632 -942 -629 0
-632 942 0
-632 629 0
633 -717 -14 0
-633 717 0
-633 14 0
634 -633 -49 0
-634 633 0
-634 49 0
635 -943 -632 0
-635 943 0
-635 632 0
636 -26 -23 0
-636 26 0
-636 23 0
637 -636 -832 0
-637 636 0
-637 832 0
638 -944 -635 0
-638 944 0
-638 635 0
639 -817 -8 0
-639 817 0
-639 8 0
640 -639 -12 0
-640 639 0
-640 12 0
641 -945 -638 0
-641 945 0
-641 638 0
642 -50 -27 0
-642 50 0
-642 27 0
643 -642 -37 0
-643 642 0
-643 37 0
644 -946 -641 0
-644 946 0
-644 641 0
645 -774 -947 0
-645 774 0
-645 947 0
646 -645 -824 0
-646 645 0
-646 824 0
647 -948 -644 0
-647 948 0
-647 644 0
648 -2 -1 0
-648 2 0
-648 1 0
649 -648 -5 0
-649 648 0
-649 5 0
650 -949 -647 0
-650 949 0
-650 647 0
651 -25 -710 0
-651 25 0
-651 710 0
652 -651 -711 0
-652 651 0
-652 711 0
653 -950 -650 0
-653 950 0
-653 650 0
654 -749 -719 0
-654 749 0
-654 719 0
655 -654 -46 0
-655 654 0
-655 46 0
656 -951 -653 0
-656 951 0
-656 653 0
657 -42 -33 0
-657 42 0
-657 33 0
658 -657 -43 0
-658 657 0
-658 43 0
659 -952 -656 0
-659 952 0
-659 656 0
660 -815 -19 0
-660 815 0
-660 19 0
661 -660 -832 0
-661 660 0
-661 832 0
662 -953 -659 0
-662 953 0
-662 659 0
663 -36 -725 0
-663 36 0
-663 725 0
664 -663 -44 0
-664 663 0
-664 44 0
665 -954 -662 0
-665 954 0
-665 662 0
666 -732 -21 0
-666 732 0
-666 21 0
667 -666 -38 0
-667 666 0
-667 38 0
668 -955 -665 0
-668 955 0
-668 665 0
669 -34 -786 0
-669 34 0
-669 786 0
670 -669 -820 0
-670 669 0
-670 820 0
671 -956 -668 0
-671 956 0
-671 668 0
672 -32 -719 0
-672 32 0
-672 719 0
673 -672 -725 0
-673 672 0
-673 725 0
674 -957 -671 0
-674 957 0
-674 671 0
675 -50 -745 0
-675 50 0
-675 745 0
676 -675 -35 0
-676 675 0
-676 35 0
677 -958 -674 0
-677 958 0
-677 674 0
678 -29 -12 0
-678 29 0
-678 12 0
679 -678 -3 0
-679 678 0
-679 3 0
680 -959 -677 0
-680 959 0
-680 677 0
681 -786 -766 0
-681 786 0
-681 766 0
682 -681 -782 0
-682 681 0
-682 782 0
683 -960 -680 0
-683 960 0
-683 680 0
684 -46 -33 0
-684 46 0
-684 33 0
685 -684 -770 0
-685 684 0
-685 770 0
686 -961 -683 0
-686 961 0
-686 683 0
687 -304 -824 0
-687 304 0
-687 824 0
688 -962 -686 0
-688 962 0
-688 686 0
689 -49 -721 0
-689 49 0
-689 721 0
690 -689 -36 0
-690 689 0
-690 36 0
691 -963 -688 0
-691 963 0
-691 688 0
692 -30 -787 0
-692 30 0
-692 787 0
693 -692 -782 0
-693 692 0
-693 782 0
694 -964 -691 0
-694 964 0
-694 691 0
695 -813 -40 0
-695 813 0
-695 40 0
696 -695 -745 0
-696 695 0
-696 745 0
697 -965 -694 0
-697 965 0
-697 694 0
-698 -1 0
698 1 0
-699 -4 0
699 4 0
-700 -6 0
700 6 0
-701 -54 0
701 54 0
-702 -52 0
702 52 0
-703 -7 0
703 7 0
-704 -2 0
704 2 0
-705 -3 0
705 3 0
-706 -57 0
706 57 0
-707 -60 0
707 60 0
-708 -63 0
708 63 0
-709 -14 0
709 14 0
-710 -13 0
710 13 0
-711 -15 0
711 15 0
-712 -66 0
712 66 0
-713 -17 0
713 17 0
-714 -18 0
714 18 0
-715 -69 0
715 69 0
-716 -72 0
716 72 0
-717 -21 0
717 21 0
-718 -75 0
718 75 0
-719 -22 0
719 22 0
-720 -78 0
720 78 0
-721 -26 0
721 26 0
-722 -81 0
722 81 0
-723 -84 0
723 84 0
-724 -29 0
724 29 0
-725 -28 0
725 28 0
-726 -87 0
726 87 0
-727 -31 0
727 31 0
-728 -90 0
728 90 0
-729 -32 0
729 32 0
-730 -93 0
730 93 0
-731 -96 0
731 96 0
-732 -25 0
732 25 0
-733 -99 0
733 99 0
-734 -102 0
734 102 0
-735 -34 0
735 34 0
-736 -105 0
736 105 0
-737 -19 0
737 19 0
-738 -108 0
738 108 0
-739 -5 0
739 5 0
-740 -111 0
740 111 0
-741 -114 0
741 114 0
-742 -117 0
742 117 0
-743 -23 0
743 23 0
-744 -120 0
744 120 0
-745 -38 0
745 38 0
-746 -123 0
746 123 0
-747 -27 0
747 27 0
-748 -126 0
748 126 0
-749 -39 0
749 39 0
-750 -8 0
750 8 0
-751 -129 0
751 129 0
-752 -11 0
752 11 0
-753 -132 0
753 132 0
-754 -135 0
754 135 0
-755 -138 0
755 138 0
-756 -141 0
756 141 0
-757 -42 0
757 42 0
-758 -144 0
758 144 0
-759 -147 0
759 147 0
-760 -12 0
760 12 0
-761 -150 0
761 150 0
-762 -41 0
762 41 0
-763 -37 0
763 37 0
-764 -153 0
764 153 0
-765 -156 0
765 156 0
-766 -20 0
766 20 0
-767 -159 0
767 159 0
-768 -162 0
768 162 0
-769 -165 0
769 165 0
-770 -44 0
770 44 0
-771 -168 0
771 168 0
-772 -171 0
772 171 0
-773 -174 0
773 174 0
-774 -36 0
774 36 0
-775 -177 0
775 177 0
-776 -180 0
776 180 0
-777 -183 0
777 183 0
-778 -186 0
778 186 0
-779 -189 0
779 189 0
-780 -192 0
780 192 0
-781 -195 0
781 195 0
-782 -43 0
782 43 0
-783 -198 0
783 198 0
-784 -201 0
784 201 0
-785 -204 0
785 204 0
-786 -30 0
786 30 0
-787 -10 0
787 10 0
-788 -207 0
788 207 0
-789 -210 0
789 210 0
-790 -213 0
790 213 0
-791 -216 0
791 216 0
-792 -219 0
792 219 0
-793 -222 0
793 222 0
-794 -225 0
794 225 0
-795 -228 0
795 228 0
-796 -231 0
796 231 0
-797 -234 0
797 234 0
-798 -237 0
798 237 0
-799 -49 0
799 49 0
-800 -240 0
800 240 0
-801 -243 0
801 243 0
-802 -246 0
802 246 0
-803 -249 0
803 249 0
-804 -252 0
804 252 0
-805 -255 0
805 255 0
-806 -257 0
806 257 0
-807 -260 0
807 260 0
-808 -263 0
808 263 0
-809 -266 0
809 266 0
-810 -24 0
810 24 0
-811 -269 0
811 269 0
-812 -272 0
812 272 0
-813 -47 0
813 47 0
-814 -275 0
814 275 0
-815 -45 0
815 45 0
-816 -278 0
816 278 0
-817 -40 0
817 40 0
-818 -281 0
818 281 0
-819 -284 0
819 284 0
-820 -33 0
820 33 0
-821 -287 0
821 287 0
-822 -290 0
822 290 0
-823 -293 0
823 293 0
-824 -9 0
824 9 0
-825 -296 0
825 296 0
-826 -299 0
826 299 0
-827 -302 0
827 302 0
-828 -305 0
828 305 0
-829 -308 0
829 308 0
-830 -311 0
830 311 0
-831 -314 0
831 314 0
-832 -46 0
832 46 0
-833 -317 0
833 317 0
-834 -320 0
834 320 0
-835 -323 0
835 323 0
-836 -326 0
836 326 0
-837 -329 0
837 329 0
-838 -332 0
838 332 0
-839 -335 0
839 335 0
-840 -338 0
840 338 0
-841 -341 0
841 341 0
-842 -344 0
842 344 0
-843 -347 0
843 347 0
-844 -350 0
844 350 0
-845 -353 0
845 353 0
-846 -356 0
846 356 0
-847 -359 0
847 359 0
-848 -361 0
848 361 0
-849 -364 0
849 364 0
-850 -367 0
850 367 0
-851 -370 0
851 370 0
-852 -373 0
852 373 0
-853 -376 0
853 376 0
-854 -379 0
854 379 0
-855 -382 0
855 382 0
-856 -385 0
856 385 0
-857 -388 0
857 388 0
-858 -391 0
858 391 0
-859 -50 0
859 50 0
-860 -394 0
860 394 0
-861 -397 0
861 397 0
-862 -400 0
862 400 0
-863 -403 0
863 403 0
-864 -406 0
864 406 0
-865 -409 0
865 409 0
-866 -412 0
866 412 0
-867 -415 0
867 415 0
-868 -418 0
868 418 0
-869 -421 0
869 421 0
-870 -424 0
870 424 0
-871 -427 0
871 427 0
-872 -430 0
872 430 0
-873 -433 0
873 433 0
-874 -436 0
874 436 0
-875 -439 0
875 439 0
-876 -442 0
876 442 0
-877 -445 0
877 445 0
-878 -448 0
878 448 0
-879 -451 0
879 451 0
-880 -454 0
880 454 0
-881 -35 0
881 35 0
-882 -457 0
882 457 0
-883 -460 0
883 460 0
-884 -463 0
884 463 0
-885 -466 0
885 466 0
-886 -469 0
886 469 0
-887 -472 0
887 472 0
-888 -475 0
888 475 0
-889 -478 0
889 478 0
-890 -481 0
890 481 0
-891 -484 0
891 484 0
-892 -487 0
892 487 0
-893 -490 0
893 490 0
-894 -493 0
894 493 0
-895 -496 0
895 496 0
-896 -499 0
896 499 0
-897 -502 0
897 502 0
-898 -505 0
898 505 0
-899 -508 0
899 508 0
-900 -511 0
900 511 0
-901 -514 0
901 514 0
-902 -517 0
902 517 0
-903 -520 0
903 520 0
-904 -523 0
904 523 0
-905 -526 0
905 526 0
-906 -529 0
906 529 0
-907 -532 0
907 532 0
-908 -535 0
908 535 0
-909 -538 0
909 538 0
-910 -540 0
910 540 0
-911 -48 0
911 48 0
-912 -543 0
912 543 0
-913 -546 0
913 546 0
-914 -549 0
914 549 0
-915 -552 0
915 552 0
-916 -555 0
916 555 0
-917 -558 0
917 558 0
-918 -561 0
918 561 0
-919 -564 0
919 564 0
-920 -567 0
920 567 0
-921 -570 0
921 570 0
-922 -573 0
922 573 0
-923 -576 0
923 576 0
-924 -579 0
924 579 0
-925 -582 0
925 582 0
-926 -585 0
926 585 0
-927 -588 0
927 588 0
-928 -591 0
928 591 0
-929 -594 0
929 594 0
-930 -597 0
930 597 0
-931 -600 0
931 600 0
-932 -602 0
932 602 0
-933 -605 0
933 605 0
-934 -608 0
934 608 0
-935 -611 0
935 611 0
-936 -614 0
936 614 0
-937 -617 0
937 617 0
-938 -620 0
938 620 0
-939 -623 0
939 623 0
-940 -625 0
940 625 0
-941 -628 0
941 628 0
-942 -631 0
942 631 0
-943 -634 0
943 634 0
-944 -637 0
944 637 0
-945 -640 0
945 640 0
-946 -643 0
946 643 0
-947 -16 0
947 16 0
-948 -646 0
948 646 0
-949 -649 0
949 649 0
-950 -652 0
950 652 0
-951 -655 0
951 655 0
-952 -658 0
952 658 0
-953 -661 0
953 661 0
-954 -664 0
954 664 0
-955 -667 0
955 667 0
-956 -670 0
956 670 0
-957 -673 0
957 673 0
-958 -676 0
958 676 0
-959 -679 0
959 679 0
-960 -682 0
960 682 0
-961 -685 0
961 685 0
-962 -687 0
962 687 0
-963 -690 0
963 690 0
-964 -693 0
964 693 0
-965 -696 0
965 696 0
697 0
